c generated by sgen
p cnf 85 180
-2 -3 -4 0
-1 -3 -4 0
-1 -2 -4 0
-1 -2 -3 0
-6 -7 -8 0
-5 -7 -8 0
-5 -6 -8 0
-5 -6 -7 0
-10 -11 -12 0
-9 -11 -12 0
-9 -10 -12 0
-9 -10 -11 0
-14 -15 -16 0
-13 -15 -16 0
-13 -14 -16 0
-13 -14 -15 0
-18 -19 -20 0
-17 -19 -20 0
-17 -18 -20 0
-17 -18 -19 0
-22 -23 -24 0
-21 -23 -24 0
-21 -22 -24 0
-21 -22 -23 0
-26 -27 -28 0
-25 -27 -28 0
-25 -26 -28 0
-25 -26 -27 0
-30 -31 -32 0
-29 -31 -32 0
-29 -30 -32 0
-29 -30 -31 0
-34 -35 -36 0
-33 -35 -36 0
-33 -34 -36 0
-33 -34 -35 0
-38 -39 -40 0
-37 -39 -40 0
-37 -38 -40 0
-37 -38 -39 0
-42 -43 -44 0
-41 -43 -44 0
-41 -42 -44 0
-41 -42 -43 0
-46 -47 -48 0
-45 -47 -48 0
-45 -46 -48 0
-45 -46 -47 0
-50 -51 -52 0
-49 -51 -52 0
-49 -50 -52 0
-49 -50 -51 0
-54 -55 -56 0
-53 -55 -56 0
-53 -54 -56 0
-53 -54 -55 0
-58 -59 -60 0
-57 -59 -60 0
-57 -58 -60 0
-57 -58 -59 0
-62 -63 -64 0
-61 -63 -64 0
-61 -62 -64 0
-61 -62 -63 0
-66 -67 -68 0
-65 -67 -68 0
-65 -66 -68 0
-65 -66 -67 0
-70 -71 -72 0
-69 -71 -72 0
-69 -70 -72 0
-69 -70 -71 0
-74 -75 -76 0
-73 -75 -76 0
-73 -74 -76 0
-73 -74 -75 0
-78 -79 -80 0
-77 -79 -80 0
-77 -78 -80 0
-77 -78 -79 0
-81 -82 -83 0
-81 -82 -84 0
-81 -82 -85 0
-81 -83 -84 0
-81 -83 -85 0
-81 -84 -85 0
-82 -83 -84 0
-82 -83 -85 0
-82 -84 -85 0
-83 -84 -85 0
3 42 21 0
65 42 21 0
65 3 21 0
65 3 42 0
75 26 84 0
1 26 84 0
1 75 84 0
1 75 26 0
59 16 19 0
6 16 19 0
6 59 19 0
6 59 16 0
73 10 60 0
45 10 60 0
45 73 60 0
45 73 10 0
27 17 61 0
41 17 61 0
41 27 61 0
41 27 17 0
67 74 35 0
64 74 35 0
64 67 35 0
64 67 74 0
23 33 48 0
5 33 48 0
5 23 48 0
5 23 33 0
47 39 62 0
14 39 62 0
14 47 62 0
14 47 39 0
58 71 83 0
53 71 83 0
53 58 83 0
53 58 71 0
25 57 51 0
22 57 51 0
22 25 51 0
22 25 57 0
28 37 36 0
54 37 36 0
54 28 36 0
54 28 37 0
76 32 85 0
15 32 85 0
15 76 85 0
15 76 32 0
34 4 50 0
77 4 50 0
77 34 50 0
77 34 4 0
30 2 9 0
70 2 9 0
70 30 9 0
70 30 2 0
18 56 12 0
52 56 12 0
52 18 12 0
52 18 56 0
7 31 44 0
55 31 44 0
55 7 44 0
55 7 31 0
46 80 81 0
43 80 81 0
43 46 81 0
43 46 80 0
8 38 11 0
79 38 11 0
79 8 11 0
79 8 38 0
24 78 69 0
63 78 69 0
63 24 69 0
63 24 78 0
72 49 13 0
68 49 13 0
68 72 13 0
68 72 49 0
20 66 40 0
20 66 29 0
20 66 82 0
20 40 29 0
20 40 82 0
20 29 82 0
66 40 29 0
66 40 82 0
66 29 82 0
40 29 82 0
